%chk=check.chk
%mem=1500mb
%nproc=8

#P opt=calcfc wb97xd/6-311++g(d,p)   scf=xqc

name

0 1
H       1.02364684   -0.09583525   -0.01601350
H       2.02364684   -0.09583525   -0.01601350




