%chk=check.chk
%mem=1500mb
%nproc=8

#P  b3lyp/cbsb7 freq iop(7/33=1)  scf=xqc

name

0 1
H       1.19804800    0.01874300    0.06873000
H       1.94230700    0.01874300    0.06873000




