%chk=check.chk
%mem=1500mb
%nproc=8

#P opt=(noeigentest, calcfc) cbs-qb3   scf=xqc

name

0 2
O       0.95220600   -0.16848900    0.26295400
C       2.81799700    1.26906200    0.57891900
C       2.17505300    0.12663300    0.02436100
H       3.86297200    1.49295100    0.35553500
H       2.25928700    1.93459400    1.23920800
H       2.78047600   -0.52140300   -0.64075800




