%chk=check.chk
%mem=1500mb
%nproc=8

#P opt=(calcfc, noeigentest) b3lyp/cbsb7   scf=xqc iop(2/9=2000)

name

0 1
H       1.06568494   -0.03722354    0.06557360
H       2.06568494   -0.03722354    0.06557360




