# hf/3-21g

OH optimized at 

0 2
O       0.00000000    0.00000000   -0.12209300
H       0.00000000    0.00000000    0.85305500

