# hf/3-21g

N2H4 optimized at 

0 1
N      -0.65290500    0.01707700   -0.30192400
N       0.61708000    0.05498100    0.36591200
H      -1.13143400   -0.82163600    0.00542400
H      -1.23890700    0.81257200   -0.05731400
H       0.56883900    0.54964900    1.25418100
H       1.25856600    0.56221000   -0.23250600

