%chk=check.chk
%mem=1500mb
%nproc=8

#P scf=(tight, direct) integral=(grid=ultrafine, Acc2E=12) b3lyp/6-311+g(3df,2p)   scf=xqc iop(2/9=2000)

name

0 1
H       1.19359800   -0.03722400    0.06557400
H       1.93777100   -0.03722400    0.06557400




