%chk=check.chk
%mem=1500mb
%nproc=8

#P  b3lyp/cbsb7 freq iop(7/33=1)  scf=xqc

name

0 1
C      -1.10289700    0.12082900   -0.25978300
C       0.16168500   -0.25008400    0.45752100
C       1.39304700    0.01218600    0.03065300
H      -0.89493200    0.64391900   -1.19612000
H      -1.73214900    0.76806500    0.36125600
H      -1.69997400   -0.76857400   -0.49005100
H       0.03563100   -0.77623400    1.40247600
H       2.26742000   -0.28434000    0.59893800
H       1.57216900    0.53423200   -0.90488900




