%chk=check.chk
%mem=1500mb
%nproc=8

#P opt=calcfc b97d/6-31g   scf=xqc

name

0 1
N       0.92507255   -0.01549244   -0.05108818
N       0.45052653    0.26346228   -1.38288946
H       0.62680499   -0.94767658    0.25703296
H       1.95008737   -0.05637253   -0.02778807
H       0.74879341    1.19564677   -1.69101022
H      -0.57448831    0.30434156   -1.40618978




