%chk=check.chk
%mem=1500mb
%nproc=8

#P opt=calcfc uhf/3-21g*   scf=xqc

name

0 2
O       1.11533385    0.15207260    0.01374780
C       3.10535928   -0.77108508   -0.85340554
C       2.36152663    0.04143810   -0.09017493
H       4.18594323   -0.73510993   -0.81961287
H       2.62709116   -1.48028614   -1.51958218
H       2.96274934    0.70595544    0.53402876




