%chk=check.chk
%mem=1500mb
%nproc=8

#P  ub3lyp/cbsb7 freq iop(7/33=1)  scf=xqc

name

0 2
O       0.00000000    0.00000000   -0.12209300
H       0.00000000    0.00000000    0.85305500




