%chk=check.chk
%mem=1500mb
%nproc=8

#P opt=(calcfc, noeigentest, tight) b3lyp/cbsb7  scf=(tight, direct) integral=(grid=ultrafine, Acc2E=12) scf=xqc iop(2/9=2000)

name

0 1
H       1.19355500   -0.03722400    0.06557400
H       1.93781400   -0.03722400    0.06557400




