%chk=check.chk
%mem=1500mb
%nproc=8

#P opt=(calcfc, noeigentest) b3lyp/cbsb7   scf=xqc iop(2/9=2000)

name

0 1
H       0.90646207    0.01347991   -0.03269476
H       1.90646207    0.01347991   -0.03269476




