%chk=check.chk
%mem=1500mb
%nproc=8

#P opt=calcfc b97d/6-31g   scf=xqc

name

0 1
N       0.81328106    0.20473185   -0.34633016
C      -0.57399715   -0.01098301    0.02398172
H      -1.09201557   -0.56905001   -0.76087585
H      -0.63951337   -0.57624100    0.95798559
H      -1.08265882    0.94774278    0.15774172
H       1.28315271   -0.69497278   -0.43830078
H       1.29175114    0.69877216    0.40579777




