%chk=check.chk
%mem=1500mb
%nproc=8

#P opt=(noeigentest, calcfc) cbs-qb3   scf=xqc

name

0 2
O       0.00000000    0.00000000   -0.12002167
H       0.00000000    0.00000000    0.85098324




