%chk=check.chk
%mem=1500mb
%nproc=8

#P opt=(noeigentest, calcfc) cbs-qb3   scf=xqc

name

0 1
N       0.83069800    0.17139300   -0.29146100
C      -0.58251000   -0.03062500    0.05650000
H      -1.08281800   -0.56750100   -0.76501500
H      -0.77439000   -0.59873500    0.99650000
H      -1.07345200    0.95061000    0.15440200
H       1.33679300   -0.68285100   -0.51168800
H       1.34568000    0.75770900    0.36076100




