%chk=check.chk
%mem=1500mb
%nproc=8

#P opt=calcfc uhf/3-21g*   scf=xqc

name

0 2
O      -1.38440338   -0.98826087   -0.11438507
C       0.73994165   -0.01379383    0.06588018
C      -0.71599503    0.03397361   -0.06392872
H       1.21764951   -0.98170064    0.11680528
H       1.29996403    0.90735031    0.10758912
H      -1.15715678    1.04243143   -0.11196080




