%chk=check.chk
%mem=1500mb
%nproc=8

#P opt=calcfc b97d/6-31g   scf=xqc

name

0 1
C       1.08316054   -0.01388564    0.04400764
C       0.60491553   -1.12022092   -0.83688553
C       0.90620535   -1.20738030   -2.13823857
H       0.71764561    0.95445806   -0.31124151
H       0.70790347   -0.15993925    1.06200543
H       2.17633631    0.00430184    0.09014400
H      -0.01904453   -1.88600713   -0.38200298
H       1.52594680   -0.46330765   -2.62918673
H       0.53577563   -2.03074878   -2.74111030




