# hf/3-21g

H2 optimized at 

0 1
H       1.19804800    0.01874300    0.06873000
H       1.94230700    0.01874300    0.06873000

