# hf/3-21g

H2 optimized at b3lyp/cbsb7

0 1
H       1.19359800   -0.03722400    0.06557400
H       1.93777100   -0.03722400    0.06557400

