%chk=check.chk
%mem=1500mb
%nproc=8

#P opt=calcfc /  scf=(tight, direct) int=finegrid scf=xqc

name

0 1
N      -0.64632500    0.01161800   -0.33841500
N       0.63039900    0.01996100    0.36686000
H      -1.14746200   -0.82631500    0.00968300
H      -1.21880900    0.81457300   -0.00985400
H       0.53223200    0.58123000    1.23620900
H       1.27120300    0.57378500   -0.23071000




