%chk=check.chk
%mem=1500mb
%nproc=8

#P  b3lyp/cbsb7 freq iop(7/33=1) scf=(tight, direct) integral=(grid=ultrafine, Acc2E=12)  scf=xqc iop(2/9=2000)

name

0 1
H       1.03437600    0.01348000   -0.03269500
H       1.77854900    0.01348000   -0.03269500




