%chk=check.chk
%mem=1500mb
%nproc=8

#P opt=(calcfc, noeigentest) b3lyp/cbsb7   scf=xqc iop(2/9=2000)

name

0 1
H       0.95774300    0.08634062    0.02756162
H       1.95774300    0.08634062    0.02756162




