%chk=check.chk
%mem=1500mb
%nproc=8

#P  b3lyp/cbsb7 freq iop(7/33=1)  scf=xqc

name

0 1
N      -0.64840700    0.00024400   -0.36375800
N       0.64840800   -0.00106300    0.36375500
H      -1.14843400   -0.79601100    0.03021600
H      -1.14892100    0.79442900    0.03375600
H       1.14768400    0.79641500   -0.02869200
H       1.14967100   -0.79401500   -0.03527700




