%chk=check.chk
%mem=1500mb
%nproc=8

#P opt=calcfc b97d/6-31g   scf=xqc

name

0 1
N      -0.65452118    0.00045056   -0.30129668
N       0.65452210   -0.00045018    0.30129248
H      -1.20109515   -0.81130436    0.00722302
H      -1.20235426    0.80937128    0.01238410
H       1.20109344    0.81130512   -0.00722272
H       1.20235505   -0.80937242   -0.01238020




