%chk=check.chk
%mem=1500mb
%nproc=8

#P opt=calcfc wb97xd/6-311++g(d,p)   scf=xqc

name

0 1
H       0.92924724    0.01188173   -0.06966255
H       1.92924724    0.01188173   -0.06966255




